c clasp version 2.1.1
c Reading from pb_200_01.cnf
c Solving...
s SATISFIABLE

c Models        : 1+    
c Time          : 52.401s (Solving: 51.16s 1st Model: 51.16s Unsat: 0.00s)
c CPU Time      : 52.260s
c Choices       : 912483
c Conflicts     : 198462
c Restarts      : 412    (Average: 481.70 Last: 219)

c Variables     : 201317 (Eliminated: 62134 Frozen:    0)
c Constraints   : 216468 (Binary: 66.0% Ternary: 32.5% Other:  1.5%)
c Lemmas        : 198462 (Binary:  0.5% Ternary:  1.6% Other: 97.9%)
c   Conflict    : 198462 (Average Length: 48.1) 
c   Loop        : 0      (Average Length: 0.0) 
c   Other       : 0      (Average Length: 0.0)
c   Deleted     : 131463
